outputs/case_54.model.txt
impede_sound_operation = True
violate_articles = False
violate_law = True
correction_given = True
improvement_deadline_given = True
registration_authority_notified = False
suspend_partial_business = True
revoke_statutory_meeting_resolution = False
restrict_investment = False
order_or_prohibit_asset_disposition = False
order_branch_closure = False
order_manager_staff_dismissal_or_suspension = False
order_director_supervisor_dismissal_or_suspension = False
order_reserve_provision = False
other_necessary_measures = False
business_guidance_needed = False
business_guidance_designated = False
correction_ordered = True
penalty = False
penalties_applied = True
notify_registration_authority = True
violation_occurred = True